p cnf 65 2765
-1 -10 0
-1 -11 0
-1 -12 0
-1 -13 0
-1 -14 0
-1 -15 0
-1 -16 0
-1 -19 0
-1 -2 0
-1 -22 0
-1 -24 0
-1 -26 0
-1 -27 0
-1 -28 0
-1 -29 0
-1 -3 0
-1 -32 0
-1 -35 0
-1 -37 0
-1 -39 0
-1 -4 0
-1 -40 0
-1 -41 0
-1 -42 0
-1 -45 0
-1 -48 0
-1 -5 0
-1 -50 0
-1 -52 0
-1 -53 0
-1 -54 0
-1 -55 0
-1 -58 0
-1 -6 0
-1 -61 0
-1 -63 0
-1 -65 0
-1 -7 0
-1 -8 0
-1 -9 0
-10 -1 0
-10 -11 0
-10 -12 0
-10 -13 0
-10 -15 0
-10 -16 0
-10 -17 0
-10 -18 0
-10 -19 0
-10 -2 0
-10 -20 0
-10 -21 0
-10 -22 0
-10 -23 0
-10 -26 0
-10 -28 0
-10 -29 0
-10 -3 0
-10 -30 0
-10 -31 0
-10 -32 0
-10 -33 0
-10 -34 0
-10 -35 0
-10 -36 0
-10 -39 0
-10 -4 0
-10 -41 0
-10 -42 0
-10 -43 0
-10 -44 0
-10 -45 0
-10 -46 0
-10 -47 0
-10 -48 0
-10 -49 0
-10 -5 0
-10 -52 0
-10 -54 0
-10 -55 0
-10 -56 0
-10 -57 0
-10 -58 0
-10 -59 0
-10 -6 0
-10 -60 0
-10 -61 0
-10 -62 0
-10 -65 0
-10 -7 0
-10 -8 0
-10 -9 0
-11 -1 0
-11 -10 0
-11 -12 0
-11 -13 0
-11 -14 0
-11 -15 0
-11 -16 0
-11 -2 0
-11 -20 0
-11 -21 0
-11 -22 0
-11 -24 0
-11 -26 0
-11 -27 0
-11 -28 0
-11 -29 0
-11 -3 0
-11 -33 0
-11 -34 0
-11 -35 0
-11 -37 0
-11 -39 0
-11 -4 0
-11 -40 0
-11 -41 0
-11 -42 0
-11 -46 0
-11 -47 0
-11 -48 0
-11 -5 0
-11 -50 0
-11 -52 0
-11 -53 0
-11 -54 0
-11 -55 0
-11 -59 0
-11 -6 0
-11 -60 0
-11 -61 0
-11 -63 0
-11 -65 0
-11 -7 0
-11 -8 0
-11 -9 0
-12 -1 0
-12 -10 0
-12 -11 0
-12 -13 0
-12 -2 0
-12 -20 0
-12 -21 0
-12 -22 0
-12 -25 0
-12 -3 0
-12 -33 0
-12 -34 0
-12 -35 0
-12 -38 0
-12 -4 0
-12 -46 0
-12 -47 0
-12 -48 0
-12 -5 0
-12 -51 0
-12 -59 0
-12 -6 0
-12 -60 0
-12 -61 0
-12 -64 0
-12 -7 0
-12 -8 0
-12 -9 0
-13 -1 0
-13 -10 0
-13 -11 0
-13 -12 0
-13 -14 0
-13 -2 0
-13 -21 0
-13 -23 0
-13 -24 0
-13 -26 0
-13 -27 0
-13 -3 0
-13 -34 0
-13 -36 0
-13 -37 0
-13 -39 0
-13 -4 0
-13 -40 0
-13 -47 0
-13 -49 0
-13 -5 0
-13 -50 0
-13 -52 0
-13 -53 0
-13 -6 0
-13 -60 0
-13 -62 0
-13 -63 0
-13 -65 0
-13 -7 0
-13 -8 0
-13 -9 0
-14 -1 0
-14 -11 0
-14 -13 0
-14 -15 0
-14 -16 0
-14 -17 0
-14 -18 0
-14 -19 0
-14 -2 0
-14 -20 0
-14 -21 0
-14 -22 0
-14 -23 0
-14 -24 0
-14 -25 0
-14 -26 0
-14 -27 0
-14 -28 0
-14 -29 0
-14 -3 0
-14 -32 0
-14 -35 0
-14 -37 0
-14 -39 0
-14 -40 0
-14 -41 0
-14 -42 0
-14 -45 0
-14 -48 0
-14 -50 0
-14 -52 0
-14 -53 0
-14 -54 0
-14 -55 0
-14 -58 0
-14 -6 0
-14 -61 0
-14 -63 0
-14 -65 0
-14 -9 0
-15 -1 0
-15 -10 0
-15 -11 0
-15 -14 0
-15 -16 0
-15 -17 0
-15 -18 0
-15 -19 0
-15 -2 0
-15 -20 0
-15 -21 0
-15 -22 0
-15 -23 0
-15 -24 0
-15 -25 0
-15 -26 0
-15 -27 0
-15 -28 0
-15 -29 0
-15 -3 0
-15 -30 0
-15 -32 0
-15 -33 0
-15 -34 0
-15 -35 0
-15 -36 0
-15 -37 0
-15 -4 0
-15 -40 0
-15 -41 0
-15 -42 0
-15 -43 0
-15 -45 0
-15 -46 0
-15 -47 0
-15 -48 0
-15 -49 0
-15 -50 0
-15 -53 0
-15 -54 0
-15 -55 0
-15 -56 0
-15 -58 0
-15 -59 0
-15 -6 0
-15 -60 0
-15 -61 0
-15 -62 0
-15 -63 0
-15 -7 0
-15 -8 0
-15 -9 0
-16 -1 0
-16 -10 0
-16 -11 0
-16 -14 0
-16 -15 0
-16 -17 0
-16 -18 0
-16 -19 0
-16 -2 0
-16 -20 0
-16 -21 0
-16 -22 0
-16 -23 0
-16 -24 0
-16 -25 0
-16 -26 0
-16 -27 0
-16 -28 0
-16 -29 0
-16 -3 0
-16 -30 0
-16 -33 0
-16 -35 0
-16 -36 0
-16 -37 0
-16 -4 0
-16 -40 0
-16 -41 0
-16 -42 0
-16 -43 0
-16 -46 0
-16 -48 0
-16 -49 0
-16 -50 0
-16 -53 0
-16 -54 0
-16 -55 0
-16 -56 0
-16 -59 0
-16 -61 0
-16 -62 0
-16 -63 0
-16 -7 0
-16 -9 0
-17 -10 0
-17 -14 0
-17 -15 0
-17 -16 0
-17 -18 0
-17 -19 0
-17 -2 0
-17 -20 0
-17 -21 0
-17 -22 0
-17 -23 0
-17 -24 0
-17 -25 0
-17 -26 0
-17 -28 0
-17 -29 0
-17 -3 0
-17 -30 0
-17 -31 0
-17 -36 0
-17 -4 0
-17 -41 0
-17 -42 0
-17 -43 0
-17 -44 0
-17 -49 0
-17 -5 0
-17 -54 0
-17 -55 0
-17 -56 0
-17 -57 0
-17 -62 0
-18 -10 0
-18 -14 0
-18 -15 0
-18 -16 0
-18 -17 0
-18 -19 0
-18 -20 0
-18 -21 0
-18 -22 0
-18 -23 0
-18 -24 0
-18 -25 0
-18 -26 0
-18 -30 0
-18 -31 0
-18 -32 0
-18 -34 0
-18 -36 0
-18 -4 0
-18 -43 0
-18 -44 0
-18 -45 0
-18 -47 0
-18 -49 0
-18 -5 0
-18 -56 0
-18 -57 0
-18 -58 0
-18 -6 0
-18 -60 0
-18 -62 0
-18 -8 0
-19 -1 0
-19 -10 0
-19 -14 0
-19 -15 0
-19 -16 0
-19 -17 0
-19 -18 0
-19 -2 0
-19 -20 0
-19 -21 0
-19 -22 0
-19 -23 0
-19 -24 0
-19 -25 0
-19 -26 0
-19 -27 0
-19 -28 0
-19 -31 0
-19 -32 0
-19 -33 0
-19 -34 0
-19 -35 0
-19 -36 0
-19 -40 0
-19 -41 0
-19 -44 0
-19 -45 0
-19 -46 0
-19 -47 0
-19 -48 0
-19 -49 0
-19 -5 0
-19 -53 0
-19 -54 0
-19 -57 0
-19 -58 0
-19 -59 0
-19 -6 0
-19 -60 0
-19 -61 0
-19 -62 0
-19 -7 0
-19 -8 0
-19 -9 0
-2 -1 0
-2 -10 0
-2 -11 0
-2 -12 0
-2 -13 0
-2 -14 0
-2 -15 0
-2 -16 0
-2 -17 0
-2 -19 0
-2 -20 0
-2 -21 0
-2 -22 0
-2 -23 0
-2 -24 0
-2 -27 0
-2 -28 0
-2 -29 0
-2 -3 0
-2 -30 0
-2 -32 0
-2 -33 0
-2 -34 0
-2 -35 0
-2 -36 0
-2 -37 0
-2 -4 0
-2 -40 0
-2 -41 0
-2 -42 0
-2 -43 0
-2 -45 0
-2 -46 0
-2 -47 0
-2 -48 0
-2 -49 0
-2 -5 0
-2 -50 0
-2 -53 0
-2 -54 0
-2 -55 0
-2 -56 0
-2 -58 0
-2 -59 0
-2 -6 0
-2 -60 0
-2 -61 0
-2 -62 0
-2 -63 0
-2 -7 0
-2 -8 0
-2 -9 0
-20 -10 0
-20 -11 0
-20 -12 0
-20 -14 0
-20 -15 0
-20 -16 0
-20 -17 0
-20 -18 0
-20 -19 0
-20 -2 0
-20 -21 0
-20 -22 0
-20 -23 0
-20 -24 0
-20 -25 0
-20 -26 0
-20 -28 0
-20 -29 0
-20 -3 0
-20 -32 0
-20 -33 0
-20 -34 0
-20 -35 0
-20 -36 0
-20 -37 0
-20 -38 0
-20 -41 0
-20 -42 0
-20 -45 0
-20 -46 0
-20 -47 0
-20 -48 0
-20 -49 0
-20 -50 0
-20 -51 0
-20 -54 0
-20 -55 0
-20 -58 0
-20 -59 0
-20 -6 0
-20 -60 0
-20 -61 0
-20 -62 0
-20 -63 0
-20 -64 0
-20 -7 0
-20 -8 0
-20 -9 0
-21 -10 0
-21 -11 0
-21 -12 0
-21 -13 0
-21 -14 0
-21 -15 0
-21 -16 0
-21 -17 0
-21 -18 0
-21 -19 0
-21 -2 0
-21 -20 0
-21 -22 0
-21 -23 0
-21 -24 0
-21 -25 0
-21 -26 0
-21 -28 0
-21 -31 0
-21 -32 0
-21 -33 0
-21 -34 0
-21 -35 0
-21 -36 0
-21 -37 0
-21 -38 0
-21 -39 0
-21 -41 0
-21 -44 0
-21 -45 0
-21 -46 0
-21 -47 0
-21 -48 0
-21 -49 0
-21 -5 0
-21 -50 0
-21 -51 0
-21 -52 0
-21 -54 0
-21 -57 0
-21 -58 0
-21 -59 0
-21 -6 0
-21 -60 0
-21 -61 0
-21 -62 0
-21 -63 0
-21 -64 0
-21 -65 0
-21 -7 0
-21 -8 0
-21 -9 0
-22 -1 0
-22 -10 0
-22 -11 0
-22 -12 0
-22 -14 0
-22 -15 0
-22 -16 0
-22 -17 0
-22 -18 0
-22 -19 0
-22 -2 0
-22 -20 0
-22 -21 0
-22 -23 0
-22 -24 0
-22 -25 0
-22 -26 0
-22 -27 0
-22 -28 0
-22 -29 0
-22 -3 0
-22 -32 0
-22 -33 0
-22 -34 0
-22 -35 0
-22 -36 0
-22 -37 0
-22 -38 0
-22 -40 0
-22 -41 0
-22 -42 0
-22 -45 0
-22 -46 0
-22 -47 0
-22 -48 0
-22 -49 0
-22 -50 0
-22 -51 0
-22 -53 0
-22 -54 0
-22 -55 0
-22 -58 0
-22 -59 0
-22 -6 0
-22 -60 0
-22 -61 0
-22 -62 0
-22 -63 0
-22 -64 0
-22 -7 0
-22 -8 0
-22 -9 0
-23 -10 0
-23 -13 0
-23 -14 0
-23 -15 0
-23 -16 0
-23 -17 0
-23 -18 0
-23 -19 0
-23 -2 0
-23 -20 0
-23 -21 0
-23 -22 0
-23 -24 0
-23 -25 0
-23 -26 0
-23 -28 0
-23 -29 0
-23 -3 0
-23 -30 0
-23 -31 0
-23 -32 0
-23 -33 0
-23 -34 0
-23 -35 0
-23 -36 0
-23 -39 0
-23 -4 0
-23 -41 0
-23 -42 0
-23 -43 0
-23 -44 0
-23 -45 0
-23 -46 0
-23 -47 0
-23 -48 0
-23 -49 0
-23 -5 0
-23 -52 0
-23 -54 0
-23 -55 0
-23 -56 0
-23 -57 0
-23 -58 0
-23 -59 0
-23 -6 0
-23 -60 0
-23 -61 0
-23 -62 0
-23 -65 0
-23 -7 0
-23 -8 0
-23 -9 0
-24 -1 0
-24 -11 0
-24 -13 0
-24 -14 0
-24 -15 0
-24 -16 0
-24 -17 0
-24 -18 0
-24 -19 0
-24 -2 0
-24 -20 0
-24 -21 0
-24 -22 0
-24 -23 0
-24 -25 0
-24 -26 0
-24 -27 0
-24 -28 0
-24 -29 0
-24 -3 0
-24 -33 0
-24 -34 0
-24 -35 0
-24 -37 0
-24 -39 0
-24 -40 0
-24 -41 0
-24 -42 0
-24 -46 0
-24 -47 0
-24 -48 0
-24 -50 0
-24 -52 0
-24 -53 0
-24 -54 0
-24 -55 0
-24 -59 0
-24 -60 0
-24 -61 0
-24 -63 0
-24 -65 0
-24 -7 0
-24 -8 0
-24 -9 0
-25 -12 0
-25 -14 0
-25 -15 0
-25 -16 0
-25 -17 0
-25 -18 0
-25 -19 0
-25 -20 0
-25 -21 0
-25 -22 0
-25 -23 0
-25 -24 0
-25 -26 0
-25 -33 0
-25 -34 0
-25 -35 0
-25 -38 0
-25 -46 0
-25 -47 0
-25 -48 0
-25 -51 0
-25 -59 0
-25 -60 0
-25 -61 0
-25 -64 0
-25 -7 0
-25 -8 0
-25 -9 0
-26 -1 0
-26 -10 0
-26 -11 0
-26 -13 0
-26 -14 0
-26 -15 0
-26 -16 0
-26 -17 0
-26 -18 0
-26 -19 0
-26 -20 0
-26 -21 0
-26 -22 0
-26 -23 0
-26 -24 0
-26 -25 0
-26 -27 0
-26 -34 0
-26 -36 0
-26 -37 0
-26 -39 0
-26 -40 0
-26 -47 0
-26 -49 0
-26 -50 0
-26 -52 0
-26 -53 0
-26 -60 0
-26 -62 0
-26 -63 0
-26 -65 0
-26 -8 0
-27 -1 0
-27 -11 0
-27 -13 0
-27 -14 0
-27 -15 0
-27 -16 0
-27 -19 0
-27 -2 0
-27 -22 0
-27 -24 0
-27 -26 0
-27 -28 0
-27 -29 0
-27 -3 0
-27 -30 0
-27 -31 0
-27 -32 0
-27 -33 0
-27 -34 0
-27 -35 0
-27 -36 0
-27 -37 0
-27 -38 0
-27 -39 0
-27 -40 0
-27 -41 0
-27 -42 0
-27 -45 0
-27 -48 0
-27 -50 0
-27 -52 0
-27 -53 0
-27 -54 0
-27 -55 0
-27 -58 0
-27 -6 0
-27 -61 0
-27 -63 0
-27 -65 0
-27 -9 0
-28 -1 0
-28 -10 0
-28 -11 0
-28 -14 0
-28 -15 0
-28 -16 0
-28 -17 0
-28 -19 0
-28 -2 0
-28 -20 0
-28 -21 0
-28 -22 0
-28 -23 0
-28 -24 0
-28 -27 0
-28 -29 0
-28 -3 0
-28 -30 0
-28 -31 0
-28 -32 0
-28 -33 0
-28 -34 0
-28 -35 0
-28 -36 0
-28 -37 0
-28 -38 0
-28 -39 0
-28 -4 0
-28 -40 0
-28 -41 0
-28 -42 0
-28 -43 0
-28 -45 0
-28 -46 0
-28 -47 0
-28 -48 0
-28 -49 0
-28 -50 0
-28 -53 0
-28 -54 0
-28 -55 0
-28 -56 0
-28 -58 0
-28 -59 0
-28 -6 0
-28 -60 0
-28 -61 0
-28 -62 0
-28 -63 0
-28 -7 0
-28 -8 0
-28 -9 0
-29 -1 0
-29 -10 0
-29 -11 0
-29 -14 0
-29 -15 0
-29 -16 0
-29 -17 0
-29 -2 0
-29 -20 0
-29 -22 0
-29 -23 0
-29 -24 0
-29 -27 0
-29 -28 0
-29 -3 0
-29 -30 0
-29 -31 0
-29 -32 0
-29 -33 0
-29 -34 0
-29 -35 0
-29 -36 0
-29 -37 0
-29 -38 0
-29 -39 0
-29 -4 0
-29 -40 0
-29 -41 0
-29 -42 0
-29 -43 0
-29 -46 0
-29 -48 0
-29 -49 0
-29 -50 0
-29 -53 0
-29 -54 0
-29 -55 0
-29 -56 0
-29 -59 0
-29 -61 0
-29 -62 0
-29 -63 0
-29 -7 0
-29 -9 0
-3 -1 0
-3 -10 0
-3 -11 0
-3 -12 0
-3 -13 0
-3 -14 0
-3 -15 0
-3 -16 0
-3 -17 0
-3 -2 0
-3 -20 0
-3 -22 0
-3 -23 0
-3 -24 0
-3 -27 0
-3 -28 0
-3 -29 0
-3 -30 0
-3 -33 0
-3 -35 0
-3 -36 0
-3 -37 0
-3 -4 0
-3 -40 0
-3 -41 0
-3 -42 0
-3 -43 0
-3 -46 0
-3 -48 0
-3 -49 0
-3 -5 0
-3 -50 0
-3 -53 0
-3 -54 0
-3 -55 0
-3 -56 0
-3 -59 0
-3 -6 0
-3 -61 0
-3 -62 0
-3 -63 0
-3 -7 0
-3 -8 0
-3 -9 0
-30 -10 0
-30 -15 0
-30 -16 0
-30 -17 0
-30 -18 0
-30 -2 0
-30 -23 0
-30 -27 0
-30 -28 0
-30 -29 0
-30 -3 0
-30 -31 0
-30 -32 0
-30 -33 0
-30 -34 0
-30 -35 0
-30 -36 0
-30 -37 0
-30 -38 0
-30 -39 0
-30 -4 0
-30 -41 0
-30 -42 0
-30 -43 0
-30 -44 0
-30 -49 0
-30 -5 0
-30 -54 0
-30 -55 0
-30 -56 0
-30 -57 0
-30 -62 0
-31 -10 0
-31 -17 0
-31 -18 0
-31 -19 0
-31 -21 0
-31 -23 0
-31 -27 0
-31 -28 0
-31 -29 0
-31 -30 0
-31 -32 0
-31 -33 0
-31 -34 0
-31 -35 0
-31 -36 0
-31 -37 0
-31 -38 0
-31 -39 0
-31 -4 0
-31 -43 0
-31 -44 0
-31 -45 0
-31 -47 0
-31 -49 0
-31 -5 0
-31 -56 0
-31 -57 0
-31 -58 0
-31 -6 0
-31 -60 0
-31 -62 0
-31 -8 0
-32 -1 0
-32 -10 0
-32 -14 0
-32 -15 0
-32 -18 0
-32 -19 0
-32 -2 0
-32 -20 0
-32 -21 0
-32 -22 0
-32 -23 0
-32 -27 0
-32 -28 0
-32 -29 0
-32 -30 0
-32 -31 0
-32 -33 0
-32 -34 0
-32 -35 0
-32 -36 0
-32 -37 0
-32 -38 0
-32 -39 0
-32 -40 0
-32 -41 0
-32 -44 0
-32 -45 0
-32 -46 0
-32 -47 0
-32 -48 0
-32 -49 0
-32 -5 0
-32 -53 0
-32 -54 0
-32 -57 0
-32 -58 0
-32 -59 0
-32 -6 0
-32 -60 0
-32 -61 0
-32 -62 0
-32 -7 0
-32 -8 0
-32 -9 0
-33 -10 0
-33 -11 0
-33 -12 0
-33 -15 0
-33 -16 0
-33 -19 0
-33 -2 0
-33 -20 0
-33 -21 0
-33 -22 0
-33 -23 0
-33 -24 0
-33 -25 0
-33 -27 0
-33 -28 0
-33 -29 0
-33 -3 0
-33 -30 0
-33 -31 0
-33 -32 0
-33 -34 0
-33 -35 0
-33 -36 0
-33 -37 0
-33 -38 0
-33 -39 0
-33 -41 0
-33 -42 0
-33 -45 0
-33 -46 0
-33 -47 0
-33 -48 0
-33 -49 0
-33 -50 0
-33 -51 0
-33 -54 0
-33 -55 0
-33 -58 0
-33 -59 0
-33 -6 0
-33 -60 0
-33 -61 0
-33 -62 0
-33 -63 0
-33 -64 0
-33 -7 0
-33 -8 0
-33 -9 0
-34 -10 0
-34 -11 0
-34 -12 0
-34 -13 0
-34 -15 0
-34 -18 0
-34 -19 0
-34 -2 0
-34 -20 0
-34 -21 0
-34 -22 0
-34 -23 0
-34 -24 0
-34 -25 0
-34 -26 0
-34 -27 0
-34 -28 0
-34 -29 0
-34 -30 0
-34 -31 0
-34 -32 0
-34 -33 0
-34 -35 0
-34 -36 0
-34 -37 0
-34 -38 0
-34 -39 0
-34 -41 0
-34 -44 0
-34 -45 0
-34 -46 0
-34 -47 0
-34 -48 0
-34 -49 0
-34 -5 0
-34 -50 0
-34 -51 0
-34 -52 0
-34 -54 0
-34 -57 0
-34 -58 0
-34 -59 0
-34 -6 0
-34 -60 0
-34 -61 0
-34 -62 0
-34 -63 0
-34 -64 0
-34 -65 0
-34 -7 0
-34 -8 0
-34 -9 0
-35 -1 0
-35 -10 0
-35 -11 0
-35 -12 0
-35 -14 0
-35 -15 0
-35 -16 0
-35 -19 0
-35 -2 0
-35 -20 0
-35 -21 0
-35 -22 0
-35 -23 0
-35 -24 0
-35 -25 0
-35 -27 0
-35 -28 0
-35 -29 0
-35 -3 0
-35 -30 0
-35 -31 0
-35 -32 0
-35 -33 0
-35 -34 0
-35 -36 0
-35 -37 0
-35 -38 0
-35 -39 0
-35 -40 0
-35 -41 0
-35 -42 0
-35 -45 0
-35 -46 0
-35 -47 0
-35 -48 0
-35 -49 0
-35 -50 0
-35 -51 0
-35 -53 0
-35 -54 0
-35 -55 0
-35 -58 0
-35 -59 0
-35 -6 0
-35 -60 0
-35 -61 0
-35 -62 0
-35 -63 0
-35 -64 0
-35 -7 0
-35 -8 0
-35 -9 0
-36 -10 0
-36 -13 0
-36 -15 0
-36 -16 0
-36 -17 0
-36 -18 0
-36 -19 0
-36 -2 0
-36 -20 0
-36 -21 0
-36 -22 0
-36 -23 0
-36 -26 0
-36 -27 0
-36 -28 0
-36 -29 0
-36 -3 0
-36 -30 0
-36 -31 0
-36 -32 0
-36 -33 0
-36 -34 0
-36 -35 0
-36 -37 0
-36 -38 0
-36 -39 0
-36 -4 0
-36 -41 0
-36 -42 0
-36 -43 0
-36 -44 0
-36 -45 0
-36 -46 0
-36 -47 0
-36 -48 0
-36 -49 0
-36 -5 0
-36 -52 0
-36 -54 0
-36 -55 0
-36 -56 0
-36 -57 0
-36 -58 0
-36 -59 0
-36 -6 0
-36 -60 0
-36 -61 0
-36 -62 0
-36 -65 0
-36 -7 0
-36 -8 0
-36 -9 0
-37 -1 0
-37 -11 0
-37 -13 0
-37 -14 0
-37 -15 0
-37 -16 0
-37 -2 0
-37 -20 0
-37 -21 0
-37 -22 0
-37 -24 0
-37 -26 0
-37 -27 0
-37 -28 0
-37 -29 0
-37 -3 0
-37 -30 0
-37 -31 0
-37 -32 0
-37 -33 0
-37 -34 0
-37 -35 0
-37 -36 0
-37 -38 0
-37 -39 0
-37 -40 0
-37 -41 0
-37 -42 0
-37 -46 0
-37 -47 0
-37 -48 0
-37 -50 0
-37 -52 0
-37 -53 0
-37 -54 0
-37 -55 0
-37 -59 0
-37 -60 0
-37 -61 0
-37 -63 0
-37 -65 0
-37 -7 0
-37 -8 0
-37 -9 0
-38 -12 0
-38 -20 0
-38 -21 0
-38 -22 0
-38 -25 0
-38 -27 0
-38 -28 0
-38 -29 0
-38 -30 0
-38 -31 0
-38 -32 0
-38 -33 0
-38 -34 0
-38 -35 0
-38 -36 0
-38 -37 0
-38 -39 0
-38 -46 0
-38 -47 0
-38 -48 0
-38 -51 0
-38 -59 0
-38 -60 0
-38 -61 0
-38 -64 0
-38 -7 0
-38 -8 0
-38 -9 0
-39 -1 0
-39 -10 0
-39 -11 0
-39 -13 0
-39 -14 0
-39 -21 0
-39 -23 0
-39 -24 0
-39 -26 0
-39 -27 0
-39 -28 0
-39 -29 0
-39 -30 0
-39 -31 0
-39 -32 0
-39 -33 0
-39 -34 0
-39 -35 0
-39 -36 0
-39 -37 0
-39 -38 0
-39 -40 0
-39 -47 0
-39 -49 0
-39 -50 0
-39 -52 0
-39 -53 0
-39 -60 0
-39 -62 0
-39 -63 0
-39 -65 0
-39 -8 0
-4 -1 0
-4 -10 0
-4 -11 0
-4 -12 0
-4 -13 0
-4 -15 0
-4 -16 0
-4 -17 0
-4 -18 0
-4 -2 0
-4 -23 0
-4 -28 0
-4 -29 0
-4 -3 0
-4 -30 0
-4 -31 0
-4 -36 0
-4 -41 0
-4 -42 0
-4 -43 0
-4 -44 0
-4 -49 0
-4 -5 0
-4 -54 0
-4 -55 0
-4 -56 0
-4 -57 0
-4 -6 0
-4 -62 0
-4 -7 0
-4 -8 0
-4 -9 0
-40 -1 0
-40 -11 0
-40 -13 0
-40 -14 0
-40 -15 0
-40 -16 0
-40 -19 0
-40 -2 0
-40 -22 0
-40 -24 0
-40 -26 0
-40 -27 0
-40 -28 0
-40 -29 0
-40 -3 0
-40 -32 0
-40 -35 0
-40 -37 0
-40 -39 0
-40 -41 0
-40 -42 0
-40 -43 0
-40 -44 0
-40 -45 0
-40 -46 0
-40 -47 0
-40 -48 0
-40 -49 0
-40 -50 0
-40 -51 0
-40 -52 0
-40 -53 0
-40 -54 0
-40 -55 0
-40 -58 0
-40 -6 0
-40 -61 0
-40 -63 0
-40 -65 0
-40 -9 0
-41 -1 0
-41 -10 0
-41 -11 0
-41 -14 0
-41 -15 0
-41 -16 0
-41 -17 0
-41 -19 0
-41 -2 0
-41 -20 0
-41 -21 0
-41 -22 0
-41 -23 0
-41 -24 0
-41 -27 0
-41 -28 0
-41 -29 0
-41 -3 0
-41 -30 0
-41 -32 0
-41 -33 0
-41 -34 0
-41 -35 0
-41 -36 0
-41 -37 0
-41 -4 0
-41 -40 0
-41 -42 0
-41 -43 0
-41 -44 0
-41 -45 0
-41 -46 0
-41 -47 0
-41 -48 0
-41 -49 0
-41 -50 0
-41 -51 0
-41 -52 0
-41 -53 0
-41 -54 0
-41 -55 0
-41 -56 0
-41 -58 0
-41 -59 0
-41 -6 0
-41 -60 0
-41 -61 0
-41 -62 0
-41 -63 0
-41 -7 0
-41 -8 0
-41 -9 0
-42 -1 0
-42 -10 0
-42 -11 0
-42 -14 0
-42 -15 0
-42 -16 0
-42 -17 0
-42 -2 0
-42 -20 0
-42 -22 0
-42 -23 0
-42 -24 0
-42 -27 0
-42 -28 0
-42 -29 0
-42 -3 0
-42 -30 0
-42 -33 0
-42 -35 0
-42 -36 0
-42 -37 0
-42 -4 0
-42 -40 0
-42 -41 0
-42 -43 0
-42 -44 0
-42 -45 0
-42 -46 0
-42 -47 0
-42 -48 0
-42 -49 0
-42 -50 0
-42 -51 0
-42 -52 0
-42 -53 0
-42 -54 0
-42 -55 0
-42 -56 0
-42 -59 0
-42 -61 0
-42 -62 0
-42 -63 0
-42 -7 0
-42 -9 0
-43 -10 0
-43 -15 0
-43 -16 0
-43 -17 0
-43 -18 0
-43 -2 0
-43 -23 0
-43 -28 0
-43 -29 0
-43 -3 0
-43 -30 0
-43 -31 0
-43 -36 0
-43 -4 0
-43 -40 0
-43 -41 0
-43 -42 0
-43 -44 0
-43 -45 0
-43 -46 0
-43 -47 0
-43 -48 0
-43 -49 0
-43 -5 0
-43 -50 0
-43 -51 0
-43 -52 0
-43 -54 0
-43 -55 0
-43 -56 0
-43 -57 0
-43 -62 0
-44 -10 0
-44 -17 0
-44 -18 0
-44 -19 0
-44 -21 0
-44 -23 0
-44 -30 0
-44 -31 0
-44 -32 0
-44 -34 0
-44 -36 0
-44 -4 0
-44 -40 0
-44 -41 0
-44 -42 0
-44 -43 0
-44 -45 0
-44 -46 0
-44 -47 0
-44 -48 0
-44 -49 0
-44 -5 0
-44 -50 0
-44 -51 0
-44 -52 0
-44 -56 0
-44 -57 0
-44 -58 0
-44 -6 0
-44 -60 0
-44 -62 0
-44 -8 0
-45 -1 0
-45 -10 0
-45 -14 0
-45 -15 0
-45 -18 0
-45 -19 0
-45 -2 0
-45 -20 0
-45 -21 0
-45 -22 0
-45 -23 0
-45 -27 0
-45 -28 0
-45 -31 0
-45 -32 0
-45 -33 0
-45 -34 0
-45 -35 0
-45 -36 0
-45 -40 0
-45 -41 0
-45 -42 0
-45 -43 0
-45 -44 0
-45 -46 0
-45 -47 0
-45 -48 0
-45 -49 0
-45 -5 0
-45 -50 0
-45 -51 0
-45 -52 0
-45 -53 0
-45 -54 0
-45 -57 0
-45 -58 0
-45 -59 0
-45 -6 0
-45 -60 0
-45 -61 0
-45 -62 0
-45 -7 0
-45 -8 0
-45 -9 0
-46 -10 0
-46 -11 0
-46 -12 0
-46 -15 0
-46 -16 0
-46 -19 0
-46 -2 0
-46 -20 0
-46 -21 0
-46 -22 0
-46 -23 0
-46 -24 0
-46 -25 0
-46 -28 0
-46 -29 0
-46 -3 0
-46 -32 0
-46 -33 0
-46 -34 0
-46 -35 0
-46 -36 0
-46 -37 0
-46 -38 0
-46 -40 0
-46 -41 0
-46 -42 0
-46 -43 0
-46 -44 0
-46 -45 0
-46 -47 0
-46 -48 0
-46 -49 0
-46 -50 0
-46 -51 0
-46 -52 0
-46 -54 0
-46 -55 0
-46 -58 0
-46 -59 0
-46 -6 0
-46 -60 0
-46 -61 0
-46 -62 0
-46 -63 0
-46 -64 0
-46 -7 0
-46 -8 0
-46 -9 0
-47 -10 0
-47 -11 0
-47 -12 0
-47 -13 0
-47 -15 0
-47 -18 0
-47 -19 0
-47 -2 0
-47 -20 0
-47 -21 0
-47 -22 0
-47 -23 0
-47 -24 0
-47 -25 0
-47 -26 0
-47 -28 0
-47 -31 0
-47 -32 0
-47 -33 0
-47 -34 0
-47 -35 0
-47 -36 0
-47 -37 0
-47 -38 0
-47 -39 0
-47 -40 0
-47 -41 0
-47 -42 0
-47 -43 0
-47 -44 0
-47 -45 0
-47 -46 0
-47 -48 0
-47 -49 0
-47 -5 0
-47 -50 0
-47 -51 0
-47 -52 0
-47 -54 0
-47 -57 0
-47 -58 0
-47 -59 0
-47 -6 0
-47 -60 0
-47 -61 0
-47 -62 0
-47 -63 0
-47 -64 0
-47 -65 0
-47 -7 0
-47 -8 0
-47 -9 0
-48 -1 0
-48 -10 0
-48 -11 0
-48 -12 0
-48 -14 0
-48 -15 0
-48 -16 0
-48 -19 0
-48 -2 0
-48 -20 0
-48 -21 0
-48 -22 0
-48 -23 0
-48 -24 0
-48 -25 0
-48 -27 0
-48 -28 0
-48 -29 0
-48 -3 0
-48 -32 0
-48 -33 0
-48 -34 0
-48 -35 0
-48 -36 0
-48 -37 0
-48 -38 0
-48 -40 0
-48 -41 0
-48 -42 0
-48 -43 0
-48 -44 0
-48 -45 0
-48 -46 0
-48 -47 0
-48 -49 0
-48 -50 0
-48 -51 0
-48 -52 0
-48 -53 0
-48 -54 0
-48 -55 0
-48 -58 0
-48 -59 0
-48 -6 0
-48 -60 0
-48 -61 0
-48 -62 0
-48 -63 0
-48 -64 0
-48 -7 0
-48 -8 0
-48 -9 0
-49 -10 0
-49 -13 0
-49 -15 0
-49 -16 0
-49 -17 0
-49 -18 0
-49 -19 0
-49 -2 0
-49 -20 0
-49 -21 0
-49 -22 0
-49 -23 0
-49 -26 0
-49 -28 0
-49 -29 0
-49 -3 0
-49 -30 0
-49 -31 0
-49 -32 0
-49 -33 0
-49 -34 0
-49 -35 0
-49 -36 0
-49 -39 0
-49 -4 0
-49 -40 0
-49 -41 0
-49 -42 0
-49 -43 0
-49 -44 0
-49 -45 0
-49 -46 0
-49 -47 0
-49 -48 0
-49 -5 0
-49 -50 0
-49 -51 0
-49 -52 0
-49 -54 0
-49 -55 0
-49 -56 0
-49 -57 0
-49 -58 0
-49 -59 0
-49 -6 0
-49 -60 0
-49 -61 0
-49 -62 0
-49 -65 0
-49 -7 0
-49 -8 0
-49 -9 0
-5 -1 0
-5 -10 0
-5 -11 0
-5 -12 0
-5 -13 0
-5 -17 0
-5 -18 0
-5 -19 0
-5 -2 0
-5 -21 0
-5 -23 0
-5 -3 0
-5 -30 0
-5 -31 0
-5 -32 0
-5 -34 0
-5 -36 0
-5 -4 0
-5 -43 0
-5 -44 0
-5 -45 0
-5 -47 0
-5 -49 0
-5 -56 0
-5 -57 0
-5 -58 0
-5 -6 0
-5 -60 0
-5 -62 0
-5 -7 0
-5 -8 0
-5 -9 0
-50 -1 0
-50 -11 0
-50 -13 0
-50 -14 0
-50 -15 0
-50 -16 0
-50 -2 0
-50 -20 0
-50 -21 0
-50 -22 0
-50 -24 0
-50 -26 0
-50 -27 0
-50 -28 0
-50 -29 0
-50 -3 0
-50 -33 0
-50 -34 0
-50 -35 0
-50 -37 0
-50 -39 0
-50 -40 0
-50 -41 0
-50 -42 0
-50 -43 0
-50 -44 0
-50 -45 0
-50 -46 0
-50 -47 0
-50 -48 0
-50 -49 0
-50 -51 0
-50 -52 0
-50 -53 0
-50 -54 0
-50 -55 0
-50 -59 0
-50 -60 0
-50 -61 0
-50 -63 0
-50 -65 0
-50 -7 0
-50 -8 0
-50 -9 0
-51 -12 0
-51 -20 0
-51 -21 0
-51 -22 0
-51 -25 0
-51 -33 0
-51 -34 0
-51 -35 0
-51 -38 0
-51 -40 0
-51 -41 0
-51 -42 0
-51 -43 0
-51 -44 0
-51 -45 0
-51 -46 0
-51 -47 0
-51 -48 0
-51 -49 0
-51 -50 0
-51 -52 0
-51 -59 0
-51 -60 0
-51 -61 0
-51 -64 0
-51 -7 0
-51 -8 0
-51 -9 0
-52 -1 0
-52 -10 0
-52 -11 0
-52 -13 0
-52 -14 0
-52 -21 0
-52 -23 0
-52 -24 0
-52 -26 0
-52 -27 0
-52 -34 0
-52 -36 0
-52 -37 0
-52 -39 0
-52 -40 0
-52 -41 0
-52 -42 0
-52 -43 0
-52 -44 0
-52 -45 0
-52 -46 0
-52 -47 0
-52 -48 0
-52 -49 0
-52 -50 0
-52 -51 0
-52 -53 0
-52 -60 0
-52 -62 0
-52 -63 0
-52 -65 0
-52 -8 0
-53 -1 0
-53 -11 0
-53 -13 0
-53 -14 0
-53 -15 0
-53 -16 0
-53 -19 0
-53 -2 0
-53 -22 0
-53 -24 0
-53 -26 0
-53 -27 0
-53 -28 0
-53 -29 0
-53 -3 0
-53 -32 0
-53 -35 0
-53 -37 0
-53 -39 0
-53 -40 0
-53 -41 0
-53 -42 0
-53 -45 0
-53 -48 0
-53 -50 0
-53 -52 0
-53 -54 0
-53 -55 0
-53 -56 0
-53 -57 0
-53 -58 0
-53 -59 0
-53 -6 0
-53 -60 0
-53 -61 0
-53 -62 0
-53 -63 0
-53 -64 0
-53 -65 0
-53 -9 0
-54 -1 0
-54 -10 0
-54 -11 0
-54 -14 0
-54 -15 0
-54 -16 0
-54 -17 0
-54 -19 0
-54 -2 0
-54 -20 0
-54 -21 0
-54 -22 0
-54 -23 0
-54 -24 0
-54 -27 0
-54 -28 0
-54 -29 0
-54 -3 0
-54 -30 0
-54 -32 0
-54 -33 0
-54 -34 0
-54 -35 0
-54 -36 0
-54 -37 0
-54 -4 0
-54 -40 0
-54 -41 0
-54 -42 0
-54 -43 0
-54 -45 0
-54 -46 0
-54 -47 0
-54 -48 0
-54 -49 0
-54 -50 0
-54 -53 0
-54 -55 0
-54 -56 0
-54 -57 0
-54 -58 0
-54 -59 0
-54 -6 0
-54 -60 0
-54 -61 0
-54 -62 0
-54 -63 0
-54 -64 0
-54 -65 0
-54 -7 0
-54 -8 0
-54 -9 0
-55 -1 0
-55 -10 0
-55 -11 0
-55 -14 0
-55 -15 0
-55 -16 0
-55 -17 0
-55 -2 0
-55 -20 0
-55 -22 0
-55 -23 0
-55 -24 0
-55 -27 0
-55 -28 0
-55 -29 0
-55 -3 0
-55 -30 0
-55 -33 0
-55 -35 0
-55 -36 0
-55 -37 0
-55 -4 0
-55 -40 0
-55 -41 0
-55 -42 0
-55 -43 0
-55 -46 0
-55 -48 0
-55 -49 0
-55 -50 0
-55 -53 0
-55 -54 0
-55 -56 0
-55 -57 0
-55 -58 0
-55 -59 0
-55 -60 0
-55 -61 0
-55 -62 0
-55 -63 0
-55 -64 0
-55 -65 0
-55 -7 0
-55 -9 0
-56 -10 0
-56 -15 0
-56 -16 0
-56 -17 0
-56 -18 0
-56 -2 0
-56 -23 0
-56 -28 0
-56 -29 0
-56 -3 0
-56 -30 0
-56 -31 0
-56 -36 0
-56 -4 0
-56 -41 0
-56 -42 0
-56 -43 0
-56 -44 0
-56 -49 0
-56 -5 0
-56 -53 0
-56 -54 0
-56 -55 0
-56 -57 0
-56 -58 0
-56 -59 0
-56 -60 0
-56 -61 0
-56 -62 0
-56 -63 0
-56 -64 0
-56 -65 0
-57 -10 0
-57 -17 0
-57 -18 0
-57 -19 0
-57 -21 0
-57 -23 0
-57 -30 0
-57 -31 0
-57 -32 0
-57 -34 0
-57 -36 0
-57 -4 0
-57 -43 0
-57 -44 0
-57 -45 0
-57 -47 0
-57 -49 0
-57 -5 0
-57 -53 0
-57 -54 0
-57 -55 0
-57 -56 0
-57 -58 0
-57 -59 0
-57 -6 0
-57 -60 0
-57 -61 0
-57 -62 0
-57 -63 0
-57 -64 0
-57 -65 0
-57 -8 0
-58 -1 0
-58 -10 0
-58 -14 0
-58 -15 0
-58 -18 0
-58 -19 0
-58 -2 0
-58 -20 0
-58 -21 0
-58 -22 0
-58 -23 0
-58 -27 0
-58 -28 0
-58 -31 0
-58 -32 0
-58 -33 0
-58 -34 0
-58 -35 0
-58 -36 0
-58 -40 0
-58 -41 0
-58 -44 0
-58 -45 0
-58 -46 0
-58 -47 0
-58 -48 0
-58 -49 0
-58 -5 0
-58 -53 0
-58 -54 0
-58 -55 0
-58 -56 0
-58 -57 0
-58 -59 0
-58 -6 0
-58 -60 0
-58 -61 0
-58 -62 0
-58 -63 0
-58 -64 0
-58 -65 0
-58 -7 0
-58 -8 0
-58 -9 0
-59 -10 0
-59 -11 0
-59 -12 0
-59 -15 0
-59 -16 0
-59 -19 0
-59 -2 0
-59 -20 0
-59 -21 0
-59 -22 0
-59 -23 0
-59 -24 0
-59 -25 0
-59 -28 0
-59 -29 0
-59 -3 0
-59 -32 0
-59 -33 0
-59 -34 0
-59 -35 0
-59 -36 0
-59 -37 0
-59 -38 0
-59 -41 0
-59 -42 0
-59 -45 0
-59 -46 0
-59 -47 0
-59 -48 0
-59 -49 0
-59 -50 0
-59 -51 0
-59 -53 0
-59 -54 0
-59 -55 0
-59 -56 0
-59 -57 0
-59 -58 0
-59 -6 0
-59 -60 0
-59 -61 0
-59 -62 0
-59 -63 0
-59 -64 0
-59 -65 0
-59 -7 0
-59 -8 0
-59 -9 0
-6 -1 0
-6 -10 0
-6 -11 0
-6 -12 0
-6 -13 0
-6 -14 0
-6 -15 0
-6 -18 0
-6 -19 0
-6 -2 0
-6 -20 0
-6 -21 0
-6 -22 0
-6 -23 0
-6 -27 0
-6 -28 0
-6 -3 0
-6 -31 0
-6 -32 0
-6 -33 0
-6 -34 0
-6 -35 0
-6 -36 0
-6 -4 0
-6 -40 0
-6 -41 0
-6 -44 0
-6 -45 0
-6 -46 0
-6 -47 0
-6 -48 0
-6 -49 0
-6 -5 0
-6 -53 0
-6 -54 0
-6 -57 0
-6 -58 0
-6 -59 0
-6 -60 0
-6 -61 0
-6 -62 0
-6 -7 0
-6 -8 0
-6 -9 0
-60 -10 0
-60 -11 0
-60 -12 0
-60 -13 0
-60 -15 0
-60 -18 0
-60 -19 0
-60 -2 0
-60 -20 0
-60 -21 0
-60 -22 0
-60 -23 0
-60 -24 0
-60 -25 0
-60 -26 0
-60 -28 0
-60 -31 0
-60 -32 0
-60 -33 0
-60 -34 0
-60 -35 0
-60 -36 0
-60 -37 0
-60 -38 0
-60 -39 0
-60 -41 0
-60 -44 0
-60 -45 0
-60 -46 0
-60 -47 0
-60 -48 0
-60 -49 0
-60 -5 0
-60 -50 0
-60 -51 0
-60 -52 0
-60 -53 0
-60 -54 0
-60 -55 0
-60 -56 0
-60 -57 0
-60 -58 0
-60 -59 0
-60 -6 0
-60 -61 0
-60 -62 0
-60 -63 0
-60 -64 0
-60 -65 0
-60 -7 0
-60 -8 0
-60 -9 0
-61 -1 0
-61 -10 0
-61 -11 0
-61 -12 0
-61 -14 0
-61 -15 0
-61 -16 0
-61 -19 0
-61 -2 0
-61 -20 0
-61 -21 0
-61 -22 0
-61 -23 0
-61 -24 0
-61 -25 0
-61 -27 0
-61 -28 0
-61 -29 0
-61 -3 0
-61 -32 0
-61 -33 0
-61 -34 0
-61 -35 0
-61 -36 0
-61 -37 0
-61 -38 0
-61 -40 0
-61 -41 0
-61 -42 0
-61 -45 0
-61 -46 0
-61 -47 0
-61 -48 0
-61 -49 0
-61 -50 0
-61 -51 0
-61 -53 0
-61 -54 0
-61 -55 0
-61 -56 0
-61 -57 0
-61 -58 0
-61 -59 0
-61 -6 0
-61 -60 0
-61 -62 0
-61 -63 0
-61 -64 0
-61 -65 0
-61 -7 0
-61 -8 0
-61 -9 0
-62 -10 0
-62 -13 0
-62 -15 0
-62 -16 0
-62 -17 0
-62 -18 0
-62 -19 0
-62 -2 0
-62 -20 0
-62 -21 0
-62 -22 0
-62 -23 0
-62 -26 0
-62 -28 0
-62 -29 0
-62 -3 0
-62 -30 0
-62 -31 0
-62 -32 0
-62 -33 0
-62 -34 0
-62 -35 0
-62 -36 0
-62 -39 0
-62 -4 0
-62 -41 0
-62 -42 0
-62 -43 0
-62 -44 0
-62 -45 0
-62 -46 0
-62 -47 0
-62 -48 0
-62 -49 0
-62 -5 0
-62 -52 0
-62 -53 0
-62 -54 0
-62 -55 0
-62 -56 0
-62 -57 0
-62 -58 0
-62 -59 0
-62 -6 0
-62 -60 0
-62 -61 0
-62 -63 0
-62 -64 0
-62 -65 0
-62 -7 0
-62 -8 0
-62 -9 0
-63 -1 0
-63 -11 0
-63 -13 0
-63 -14 0
-63 -15 0
-63 -16 0
-63 -2 0
-63 -20 0
-63 -21 0
-63 -22 0
-63 -24 0
-63 -26 0
-63 -27 0
-63 -28 0
-63 -29 0
-63 -3 0
-63 -33 0
-63 -34 0
-63 -35 0
-63 -37 0
-63 -39 0
-63 -40 0
-63 -41 0
-63 -42 0
-63 -46 0
-63 -47 0
-63 -48 0
-63 -50 0
-63 -52 0
-63 -53 0
-63 -54 0
-63 -55 0
-63 -56 0
-63 -57 0
-63 -58 0
-63 -59 0
-63 -60 0
-63 -61 0
-63 -62 0
-63 -64 0
-63 -65 0
-63 -7 0
-63 -8 0
-63 -9 0
-64 -12 0
-64 -20 0
-64 -21 0
-64 -22 0
-64 -25 0
-64 -33 0
-64 -34 0
-64 -35 0
-64 -38 0
-64 -46 0
-64 -47 0
-64 -48 0
-64 -51 0
-64 -53 0
-64 -54 0
-64 -55 0
-64 -56 0
-64 -57 0
-64 -58 0
-64 -59 0
-64 -60 0
-64 -61 0
-64 -62 0
-64 -63 0
-64 -65 0
-64 -7 0
-64 -8 0
-64 -9 0
-65 -1 0
-65 -10 0
-65 -11 0
-65 -13 0
-65 -14 0
-65 -21 0
-65 -23 0
-65 -24 0
-65 -26 0
-65 -27 0
-65 -34 0
-65 -36 0
-65 -37 0
-65 -39 0
-65 -40 0
-65 -47 0
-65 -49 0
-65 -50 0
-65 -52 0
-65 -53 0
-65 -54 0
-65 -55 0
-65 -56 0
-65 -57 0
-65 -58 0
-65 -59 0
-65 -60 0
-65 -61 0
-65 -62 0
-65 -63 0
-65 -64 0
-65 -8 0
-7 -1 0
-7 -10 0
-7 -11 0
-7 -12 0
-7 -13 0
-7 -15 0
-7 -16 0
-7 -19 0
-7 -2 0
-7 -20 0
-7 -21 0
-7 -22 0
-7 -23 0
-7 -24 0
-7 -25 0
-7 -28 0
-7 -29 0
-7 -3 0
-7 -32 0
-7 -33 0
-7 -34 0
-7 -35 0
-7 -36 0
-7 -37 0
-7 -38 0
-7 -4 0
-7 -41 0
-7 -42 0
-7 -45 0
-7 -46 0
-7 -47 0
-7 -48 0
-7 -49 0
-7 -5 0
-7 -50 0
-7 -51 0
-7 -54 0
-7 -55 0
-7 -58 0
-7 -59 0
-7 -6 0
-7 -60 0
-7 -61 0
-7 -62 0
-7 -63 0
-7 -64 0
-7 -8 0
-7 -9 0
-8 -1 0
-8 -10 0
-8 -11 0
-8 -12 0
-8 -13 0
-8 -15 0
-8 -18 0
-8 -19 0
-8 -2 0
-8 -20 0
-8 -21 0
-8 -22 0
-8 -23 0
-8 -24 0
-8 -25 0
-8 -26 0
-8 -28 0
-8 -3 0
-8 -31 0
-8 -32 0
-8 -33 0
-8 -34 0
-8 -35 0
-8 -36 0
-8 -37 0
-8 -38 0
-8 -39 0
-8 -4 0
-8 -41 0
-8 -44 0
-8 -45 0
-8 -46 0
-8 -47 0
-8 -48 0
-8 -49 0
-8 -5 0
-8 -50 0
-8 -51 0
-8 -52 0
-8 -54 0
-8 -57 0
-8 -58 0
-8 -59 0
-8 -6 0
-8 -60 0
-8 -61 0
-8 -62 0
-8 -63 0
-8 -64 0
-8 -65 0
-8 -7 0
-8 -9 0
-9 -1 0
-9 -10 0
-9 -11 0
-9 -12 0
-9 -13 0
-9 -14 0
-9 -15 0
-9 -16 0
-9 -19 0
-9 -2 0
-9 -20 0
-9 -21 0
-9 -22 0
-9 -23 0
-9 -24 0
-9 -25 0
-9 -27 0
-9 -28 0
-9 -29 0
-9 -3 0
-9 -32 0
-9 -33 0
-9 -34 0
-9 -35 0
-9 -36 0
-9 -37 0
-9 -38 0
-9 -4 0
-9 -40 0
-9 -41 0
-9 -42 0
-9 -45 0
-9 -46 0
-9 -47 0
-9 -48 0
-9 -49 0
-9 -5 0
-9 -50 0
-9 -51 0
-9 -53 0
-9 -54 0
-9 -55 0
-9 -58 0
-9 -59 0
-9 -6 0
-9 -60 0
-9 -61 0
-9 -62 0
-9 -63 0
-9 -64 0
-9 -7 0
-9 -8 0
1 2 3 4 5 6 7 8 9 10 11 12 13 0
14 15 16 17 18 19 20 21 22 23 24 25 26 0
27 28 29 30 31 32 33 34 35 36 37 38 39 0
40 41 42 43 44 45 46 47 48 49 50 51 52 0
53 54 55 56 57 58 59 60 61 62 63 64 65 0
